
n_res = 4;
rcap = [33, 40, 78, 92];
rtype = [1, 1, 2, 2];
n_tasks = 50;
modes =  [{1, 2, 3}, {4, 5, 6}, {7, 8, 9}, {10, 11, 12}, {13, 14, 15}, {16, 17, 18}, {19, 20, 21}, {22, 23, 24}, {25, 26, 27}, {28, 29, 30}, {31, 32, 33}, {34, 35, 36}, {37, 38, 39}, {40, 41, 42}, {43, 44, 45}, {46, 47, 48}, {49, 50, 51}, {52, 53, 54}, {55, 56, 57}, {58, 59, 60}, {61, 62, 63}, {64, 65, 66}, {67, 68, 69}, {70, 71, 72}, {73, 74, 75}, {76, 77, 78}, {79, 80, 81}, {82, 83, 84}, {85, 86, 87}, {88, 89, 90}, {91, 92, 93}, {94, 95, 96}, {97, 98, 99}, {100, 101, 102}, {103, 104, 105}, {106, 107, 108}, {109, 110, 111}, {112, 113, 114}, {115, 116, 117}, {118, 119, 120}, {121, 122, 123}, {124, 125, 126}, {127, 128, 129}, {130, 131, 132}, {133, 134, 135}, {136, 137, 138}, {139, 140, 141}, {142, 143, 144}, {145, 146, 147}, {148, 149, 150}];
succ =  [{15, 9, 7, 6}, {16, 15, 14, 11, 9, 7}, {29, 16, 15, 14, 11, 7}, {17, 16, 15, 13, 11, 8}, {15, 8, 7}, {16, 13, 11, 8}, {20, 18, 17, 13}, {29, 23, 20, 19, 14}, {29, 23, 21, 20, 17}, {23, 20, 19, 14}, {23, 22, 21, 20, 19}, {23, 18, 15}, {26, 24, 23, 22, 19}, {28, 18}, {21, 19}, {28, 22, 21}, {36, 33, 26, 19}, {31, 25, 21}, {31, 28, 27, 25}, {36, 30, 28, 26}, {26, 24}, {36, 33, 31, 30}, {28, 25}, {39, 38, 37, 36, 35, 33}, {32, 30}, {27}, {39, 38, 37, 35, 32}, {39, 38, 37, 35, 32}, {41, 39, 38, 37, 36, 35}, {39, 38, 37, 35, 34}, {39, 38, 37, 32}, {34}, {34}, {50, 48, 45, 44, 43, 41}, {50, 48, 45, 43, 40}, {50, 48, 44, 42}, {50, 48, 43, 42}, {49, 48, 45, 43}, {50, 48, 45}, {49, 42}, {42}, {47, 46}, {47, 46}, {49, 47}, {46}, {}, {}, {}, {}, {}];
n_opt = 150;
dur = [2, 6, 8, 3, 5, 9, 1, 6, 9, 2, 7, 8, 4, 9, 10, 1, 4, 9, 2, 9, 10, 3, 4, 4, 6, 10, 10, 2, 8, 8, 1, 6, 7, 2, 6, 10, 7, 8, 9, 9, 10, 10, 1, 3, 7, 1, 8, 10, 3, 3, 8, 2, 8, 9, 3, 4, 6, 6, 8, 9, 3, 6, 7, 2, 3, 4, 1, 3, 6, 1, 6, 7, 4, 4, 7, 2, 4, 9, 1, 1, 2, 1, 3, 10, 4, 6, 7, 2, 5, 8, 1, 2, 4, 1, 7, 9, 2, 4, 6, 1, 4, 10, 3, 3, 5, 1, 7, 9, 1, 6, 10, 2, 9, 10, 3, 6, 9, 2, 6, 10, 7, 9, 9, 1, 2, 5, 5, 9, 9, 1, 2, 7, 3, 5, 7, 3, 4, 6, 1, 5, 10, 3, 4, 7, 4, 6, 9, 2, 7, 10];
rreq = [|2, 2, 2, 3, 2, 1, 2, 1, 1, 4, 4, 4, 6, 6, 5, 4, 4, 4, 7, 5, 4, 6, 5, 5, 3, 3, 3, 6, 4, 4, 7, 7, 7, 7, 7, 7, 1, 1, 1, 8, 7, 7, 6, 4, 4, 4, 2, 2, 8, 7, 6, 3, 2, 1, 6, 4, 3, 5, 3, 3, 6, 4, 1, 6, 5, 5, 9, 8, 7, 5, 3, 2, 10, 10, 10, 5, 5, 1, 8, 4, 3, 4, 4, 4, 8, 7, 7, 10, 4, 3, 6, 5, 1, 8, 7, 7, 3, 2, 1, 9, 6, 1, 8, 6, 6, 10, 10, 10, 2, 2, 2, 9, 6, 3, 5, 5, 4, 7, 6, 3, 7, 6, 3, 5, 4, 3, 7, 5, 4, 8, 7, 7, 7, 5, 4, 10, 5, 1, 4, 4, 4, 8, 6, 4, 3, 3, 3, 5, 5, 5
 |7, 3, 3, 10, 8, 6, 4, 2, 2, 10, 10, 10, 8, 5, 2, 6, 4, 3, 9, 8, 6, 6, 6, 4, 7, 4, 3, 4, 4, 4, 7, 5, 5, 7, 6, 5, 7, 7, 3, 7, 4, 3, 5, 5, 3, 5, 5, 5, 9, 9, 8, 1, 1, 1, 6, 2, 1, 5, 2, 1, 2, 2, 1, 6, 4, 2, 10, 8, 8, 7, 5, 1, 8, 6, 3, 10, 8, 6, 2, 2, 2, 4, 3, 1, 5, 4, 3, 8, 8, 7, 8, 7, 4, 6, 5, 4, 6, 3, 3, 3, 2, 1, 4, 2, 2, 8, 7, 6, 6, 6, 6, 7, 7, 4, 9, 5, 3, 5, 4, 1, 9, 8, 7, 9, 7, 7, 5, 3, 2, 5, 3, 2, 7, 6, 4, 5, 5, 4, 4, 2, 1, 8, 6, 6, 4, 4, 2, 3, 3, 3
 |3, 2, 1, 9, 0, 0, 3, 3, 2, 6, 5, 4, 0, 0, 0, 0, 0, 0, 9, 0, 0, 6, 5, 0, 0, 8, 0, 0, 2, 0, 0, 5, 4, 0, 8, 0, 4, 0, 0, 0, 4, 0, 0, 0, 0, 8, 0, 0, 0, 3, 3, 6, 5, 2, 0, 0, 0, 0, 4, 3, 0, 3, 0, 0, 6, 0, 0, 6, 4, 0, 7, 0, 0, 4, 0, 7, 0, 4, 7, 0, 1, 9, 0, 5, 0, 3, 2, 0, 2, 2, 0, 0, 0, 0, 0, 0, 0, 7, 0, 10, 0, 0, 7, 0, 0, 9, 5, 0, 0, 4, 0, 0, 3, 3, 10, 7, 6, 8, 6, 0, 1, 0, 1, 0, 4, 4, 7, 0, 2, 6, 3, 1, 3, 3, 0, 6, 6, 6, 9, 0, 0, 0, 0, 0, 0, 0, 0, 5, 0, 0
 |0, 0, 0, 0, 4, 4, 0, 0, 0, 0, 0, 0, 4, 4, 4, 10, 10, 10, 0, 5, 1, 0, 0, 4, 7, 0, 1, 8, 0, 6, 5, 0, 0, 4, 0, 1, 0, 1, 1, 9, 0, 8, 6, 5, 3, 0, 3, 2, 4, 0, 0, 0, 0, 0, 8, 7, 5, 5, 0, 0, 7, 0, 2, 6, 0, 3, 2, 0, 0, 5, 0, 1, 6, 0, 5, 0, 3, 0, 0, 1, 0, 0, 5, 0, 8, 0, 0, 9, 0, 0, 7, 6, 5, 6, 6, 6, 8, 0, 3, 0, 2, 1, 0, 7, 4, 0, 0, 7, 10, 0, 9, 9, 0, 0, 0, 0, 0, 0, 0, 3, 0, 4, 0, 9, 0, 0, 0, 1, 0, 0, 0, 0, 0, 0, 2, 0, 0, 0, 0, 6, 5, 8, 6, 3, 9, 8, 8, 0, 3, 1|];